p edge 672 1344
e 1 233
e 1 234
e 1 333
e 1 334
e 1 501
e 1 502
e 2 235
e 2 236
e 2 335
e 2 336
e 2 503
e 2 504
e 3 549
e 3 550
e 3 329
e 3 330
e 3 361
e 3 245
e 3 246
e 3 362
e 3 253
e 3 254
e 4 364
e 4 551
e 4 552
e 4 331
e 4 332
e 4 247
e 4 248
e 4 363
e 4 255
e 4 256
e 5 605
e 5 606
e 6 607
e 6 608
e 7 417
e 7 418
e 7 465
e 7 466
e 7 437
e 7 438
e 8 419
e 8 420
e 8 467
e 8 468
e 8 439
e 8 440
e 9 537
e 9 538
e 9 621
e 9 622
e 10 539
e 10 540
e 10 623
e 10 624
e 11 357
e 11 358
e 11 561
e 11 562
e 11 637
e 11 638
e 12 359
e 12 360
e 12 563
e 12 564
e 12 639
e 12 640
e 13 249
e 13 250
e 14 251
e 14 252
e 15 337
e 15 338
e 15 229
e 15 230
e 16 339
e 16 340
e 16 231
e 16 232
e 17 389
e 17 390
e 17 231
e 17 585
e 17 586
e 17 229
e 18 230
e 18 391
e 18 392
e 18 587
e 18 588
e 18 232
e 19 293
e 19 294
e 19 497
e 19 498
e 19 537
e 19 539
e 20 295
e 20 296
e 20 499
e 20 500
e 20 538
e 20 540
e 21 577
e 21 578
e 21 669
e 21 670
e 22 579
e 22 580
e 22 671
e 22 672
e 23 369
e 23 370
e 24 371
e 24 372
e 25 225
e 25 226
e 25 333
e 25 335
e 25 277
e 25 278
e 26 227
e 26 228
e 26 334
e 26 336
e 26 279
e 26 280
e 27 293
e 27 295
e 27 629
e 27 593
e 27 594
e 27 245
e 27 310
e 27 247
e 27 309
e 27 630
e 28 294
e 28 296
e 28 248
e 28 631
e 28 595
e 28 596
e 28 246
e 28 311
e 28 312
e 28 632
e 29 565
e 29 566
e 30 567
e 30 568
e 31 609
e 31 610
e 31 665
e 31 666
e 32 611
e 32 612
e 32 668
e 32 667
e 33 489
e 33 522
e 33 521
e 33 597
e 33 598
e 33 490
e 33 249
e 33 251
e 34 492
e 34 491
e 34 524
e 34 599
e 34 600
e 34 250
e 34 252
e 34 523
e 35 365
e 35 366
e 36 367
e 36 368
e 37 385
e 37 386
e 37 473
e 37 474
e 37 253
e 37 255
e 38 387
e 38 388
e 38 475
e 38 476
e 38 254
e 38 256
e 39 541
e 39 445
e 39 446
e 39 542
e 40 544
e 40 543
e 40 447
e 40 448
e 41 369
e 41 297
e 41 298
e 41 433
e 41 434
e 41 371
e 41 445
e 41 447
e 42 299
e 42 300
e 42 436
e 42 370
e 42 435
e 42 372
e 42 446
e 42 448
e 43 385
e 43 387
e 43 493
e 43 494
e 43 373
e 43 374
e 44 386
e 44 388
e 44 495
e 44 496
e 44 375
e 44 376
e 45 545
e 45 546
e 45 429
e 45 525
e 45 430
e 45 526
e 45 597
e 45 599
e 45 573
e 45 574
e 46 547
e 46 548
e 46 598
e 46 527
e 46 528
e 46 431
e 46 600
e 46 432
e 46 575
e 46 576
e 47 289
e 47 290
e 47 611
e 47 261
e 47 262
e 47 322
e 47 269
e 47 270
e 47 354
e 47 321
e 47 353
e 47 341
e 47 342
e 47 609
e 48 612
e 48 610
e 48 291
e 48 292
e 48 263
e 48 264
e 48 355
e 48 323
e 48 271
e 48 272
e 48 324
e 48 343
e 48 344
e 48 356
e 49 661
e 49 662
e 50 663
e 50 664
e 51 553
e 51 554
e 51 649
e 51 650
e 52 555
e 52 556
e 52 652
e 52 651
e 53 617
e 53 618
e 53 245
e 53 248
e 53 381
e 53 382
e 54 619
e 54 620
e 54 246
e 54 247
e 54 383
e 54 384
e 55 485
e 55 333
e 55 486
e 55 336
e 56 487
e 56 334
e 56 335
e 56 488
e 57 449
e 57 450
e 57 489
e 57 491
e 57 373
e 57 375
e 58 451
e 58 452
e 58 490
e 58 492
e 58 374
e 58 376
e 59 257
e 59 258
e 59 461
e 59 365
e 59 462
e 59 367
e 59 281
e 59 282
e 60 259
e 60 260
e 60 366
e 60 463
e 60 368
e 60 464
e 60 283
e 60 284
e 61 485
e 61 487
e 61 489
e 61 492
e 61 397
e 61 398
e 61 633
e 61 634
e 61 601
e 61 602
e 62 636
e 62 486
e 62 488
e 62 490
e 62 491
e 62 399
e 62 400
e 62 603
e 62 604
e 62 635
e 63 613
e 63 614
e 63 429
e 63 431
e 63 625
e 63 626
e 63 285
e 63 286
e 64 615
e 64 616
e 64 430
e 64 432
e 64 627
e 64 628
e 64 287
e 64 288
e 65 261
e 65 263
e 65 405
e 65 406
e 65 477
e 65 478
e 66 262
e 66 264
e 66 407
e 66 408
e 66 479
e 66 480
e 67 453
e 67 518
e 67 454
e 67 517
e 67 421
e 67 422
e 68 423
e 68 455
e 68 519
e 68 520
e 68 456
e 68 424
e 69 529
e 69 530
e 69 645
e 69 646
e 70 531
e 70 532
e 70 647
e 70 648
e 71 457
e 71 237
e 71 269
e 71 238
e 71 271
e 71 565
e 71 567
e 71 458
e 72 459
e 72 460
e 72 270
e 72 239
e 72 272
e 72 566
e 72 568
e 72 240
e 73 577
e 73 605
e 73 579
e 73 317
e 73 414
e 73 281
e 73 283
e 73 413
e 73 318
e 73 607
e 74 578
e 74 580
e 74 320
e 74 319
e 74 282
e 74 608
e 74 284
e 74 606
e 74 415
e 74 416
e 75 645
e 75 647
e 75 553
e 75 555
e 75 397
e 75 399
e 75 433
e 75 435
e 76 646
e 76 648
e 76 554
e 76 556
e 76 398
e 76 400
e 76 434
e 76 436
e 77 401
e 77 402
e 77 437
e 77 439
e 77 409
e 77 410
e 78 403
e 78 404
e 78 438
e 78 440
e 78 411
e 78 412
e 79 353
e 79 355
e 79 565
e 79 470
e 79 568
e 79 469
e 80 354
e 80 356
e 80 471
e 80 566
e 80 567
e 80 472
e 81 517
e 81 519
e 81 585
e 81 587
e 81 493
e 81 495
e 81 637
e 81 639
e 82 518
e 82 520
e 82 586
e 82 588
e 82 494
e 82 496
e 82 638
e 82 640
e 83 421
e 83 423
e 83 473
e 83 313
e 83 314
e 83 475
e 84 476
e 84 422
e 84 424
e 84 474
e 84 315
e 84 316
e 85 505
e 85 506
e 86 507
e 86 508
e 87 289
e 87 291
e 87 521
e 87 509
e 87 523
e 87 510
e 87 273
e 87 274
e 87 633
e 87 635
e 87 349
e 87 350
e 88 290
e 88 292
e 88 522
e 88 524
e 88 636
e 88 275
e 88 276
e 88 511
e 88 634
e 88 512
e 88 351
e 88 352
e 89 433
e 89 436
e 90 434
e 90 435
e 91 261
e 91 264
e 91 569
e 91 405
e 91 407
e 91 537
e 91 570
e 91 540
e 92 262
e 92 263
e 92 406
e 92 408
e 92 538
e 92 539
e 92 572
e 92 571
e 93 609
e 93 641
e 93 612
e 93 642
e 94 610
e 94 611
e 94 644
e 94 643
e 95 297
e 95 461
e 95 299
e 95 525
e 95 527
e 95 463
e 96 298
e 96 300
e 96 526
e 96 528
e 96 462
e 96 464
e 97 305
e 97 306
e 97 481
e 97 482
e 98 307
e 98 308
e 98 483
e 98 484
e 99 237
e 99 429
e 99 558
e 99 239
e 99 432
e 99 413
e 99 415
e 99 557
e 100 430
e 100 431
e 100 238
e 100 559
e 100 560
e 100 240
e 100 414
e 100 416
e 101 521
e 101 524
e 101 381
e 101 383
e 102 522
e 102 523
e 102 382
e 102 384
e 103 625
e 103 517
e 103 520
e 103 397
e 103 400
e 103 241
e 103 242
e 103 627
e 103 669
e 103 671
e 104 628
e 104 518
e 104 519
e 104 398
e 104 399
e 104 626
e 104 243
e 104 244
e 104 670
e 104 672
e 105 353
e 105 356
e 105 301
e 105 302
e 106 354
e 106 355
e 106 303
e 106 304
e 107 265
e 107 266
e 107 409
e 107 411
e 108 410
e 108 267
e 108 268
e 108 412
e 109 513
e 109 514
e 110 515
e 110 516
e 111 613
e 111 285
e 111 615
e 111 287
e 112 616
e 112 614
e 112 286
e 112 288
e 113 577
e 113 580
e 114 578
e 114 579
e 115 289
e 115 292
e 115 357
e 115 359
e 115 617
e 115 619
e 116 290
e 116 291
e 116 358
e 116 360
e 116 618
e 116 620
e 117 549
e 117 551
e 118 550
e 118 552
e 119 341
e 119 343
e 120 342
e 120 344
e 121 417
e 121 419
e 121 669
e 121 672
e 122 418
e 122 420
e 122 670
e 122 671
e 123 393
e 123 394
e 123 425
e 123 426
e 123 505
e 123 507
e 124 396
e 124 395
e 124 428
e 124 506
e 124 508
e 124 427
e 125 325
e 125 326
e 125 233
e 125 235
e 125 461
e 125 464
e 125 273
e 125 275
e 125 533
e 125 534
e 126 327
e 126 328
e 126 234
e 126 236
e 126 462
e 126 463
e 126 274
e 126 276
e 126 535
e 126 536
e 127 581
e 127 582
e 127 232
e 127 229
e 127 509
e 127 511
e 128 231
e 128 230
e 128 583
e 128 584
e 128 510
e 128 512
e 129 345
e 129 346
e 129 637
e 129 640
e 130 347
e 130 348
e 130 638
e 130 639
e 131 529
e 131 549
e 131 552
e 131 531
e 131 497
e 131 499
e 131 285
e 131 288
e 132 550
e 132 551
e 132 530
e 132 500
e 132 498
e 132 532
e 132 286
e 132 287
e 133 325
e 133 327
e 133 277
e 133 279
e 133 473
e 133 476
e 134 326
e 134 328
e 134 278
e 134 280
e 134 474
e 134 475
e 135 265
e 135 267
e 136 266
e 136 268
e 137 481
e 137 483
e 137 329
e 137 331
e 137 653
e 137 654
e 138 482
e 138 484
e 138 330
e 138 332
e 138 655
e 138 656
e 139 513
e 139 515
e 139 597
e 139 600
e 140 514
e 140 516
e 140 598
e 140 599
e 141 663
e 141 503
e 141 658
e 141 329
e 141 651
e 141 332
e 141 557
e 141 501
e 141 559
e 141 657
e 141 649
e 141 661
e 141 469
e 141 471
e 141 441
e 141 442
e 141 253
e 141 256
e 142 652
e 142 650
e 142 330
e 142 331
e 142 504
e 142 664
e 142 558
e 142 560
e 142 662
e 142 659
e 142 660
e 142 470
e 142 472
e 142 443
e 142 444
e 142 254
e 142 255
e 142 502
e 143 641
e 143 643
e 143 621
e 143 623
e 143 401
e 143 403
e 144 642
e 144 644
e 144 622
e 144 624
e 144 402
e 144 404
e 145 269
e 145 272
e 146 270
e 146 271
e 147 381
e 147 384
e 148 382
e 148 383
e 149 425
e 149 427
e 149 413
e 149 416
e 150 426
e 150 428
e 150 414
e 150 415
e 151 453
e 151 455
e 151 525
e 151 528
e 151 369
e 151 372
e 151 601
e 151 603
e 152 454
e 152 456
e 152 526
e 152 527
e 152 370
e 152 371
e 152 602
e 152 604
e 153 377
e 153 378
e 153 349
e 153 351
e 154 379
e 154 380
e 154 350
e 154 352
e 155 589
e 155 590
e 155 497
e 155 500
e 155 341
e 155 344
e 156 591
e 156 592
e 156 498
e 156 499
e 156 342
e 156 343
e 157 509
e 157 512
e 158 510
e 158 511
e 159 345
e 159 347
e 159 445
e 159 448
e 160 346
e 160 348
e 160 446
e 160 447
e 161 657
e 161 659
e 161 437
e 161 440
e 161 505
e 161 508
e 162 658
e 162 660
e 162 438
e 162 439
e 162 506
e 162 507
e 163 385
e 163 388
e 163 301
e 163 303
e 163 593
e 163 595
e 163 309
e 163 311
e 164 386
e 164 387
e 164 302
e 164 304
e 164 594
e 164 596
e 164 310
e 164 312
e 165 581
e 165 583
e 165 393
e 165 621
e 165 395
e 165 556
e 165 589
e 165 591
e 165 624
e 165 553
e 165 665
e 165 313
e 165 315
e 165 317
e 165 667
e 165 319
e 166 668
e 166 582
e 166 584
e 166 666
e 166 394
e 166 555
e 166 396
e 166 590
e 166 623
e 166 592
e 166 554
e 166 314
e 166 316
e 166 622
e 166 318
e 166 320
e 167 225
e 167 449
e 167 227
e 167 653
e 167 547
e 167 655
e 167 451
e 167 563
e 167 561
e 167 545
e 168 226
e 168 228
e 168 546
e 168 654
e 168 452
e 168 656
e 168 562
e 168 450
e 168 548
e 168 564
e 169 377
e 169 441
e 169 379
e 169 443
e 170 378
e 170 380
e 170 444
e 170 442
e 171 421
e 171 424
e 172 422
e 172 423
e 173 453
e 173 456
e 173 472
e 173 625
e 173 628
e 173 373
e 173 376
e 173 441
e 173 469
e 173 444
e 173 477
e 173 479
e 174 454
e 174 455
e 174 471
e 174 626
e 174 627
e 174 374
e 174 375
e 174 442
e 174 443
e 174 480
e 174 478
e 174 470
e 175 241
e 175 243
e 175 661
e 175 535
e 175 664
e 175 665
e 175 533
e 175 668
e 176 242
e 176 244
e 176 662
e 176 663
e 176 536
e 176 666
e 176 667
e 176 534
e 177 589
e 177 465
e 177 645
e 177 648
e 177 477
e 177 493
e 177 496
e 177 401
e 177 467
e 177 404
e 177 592
e 177 480
e 177 349
e 177 352
e 178 646
e 178 647
e 178 466
e 178 494
e 178 495
e 178 478
e 178 402
e 178 403
e 178 468
e 178 479
e 178 590
e 178 591
e 178 350
e 178 351
e 179 301
e 179 304
e 180 302
e 180 303
e 181 321
e 181 601
e 181 323
e 181 604
e 182 322
e 182 603
e 182 324
e 182 602
e 183 345
e 183 348
e 183 613
e 183 616
e 184 346
e 184 347
e 184 614
e 184 615
e 185 257
e 185 259
e 185 389
e 185 391
e 185 365
e 185 368
e 185 249
e 185 252
e 186 258
e 186 260
e 186 390
e 186 392
e 186 366
e 186 367
e 186 250
e 186 251
e 187 273
e 187 276
e 187 277
e 187 280
e 188 274
e 188 275
e 188 278
e 188 279
e 189 585
e 189 588
e 189 653
e 189 656
e 190 586
e 190 587
e 190 654
e 190 655
e 191 337
e 191 339
e 191 293
e 191 296
e 192 338
e 192 340
e 192 294
e 192 295
e 193 641
e 193 644
e 193 573
e 193 408
e 193 465
e 193 468
e 193 501
e 193 575
e 193 504
e 193 405
e 193 541
e 193 543
e 194 642
e 194 643
e 194 407
e 194 574
e 194 466
e 194 467
e 194 406
e 194 503
e 194 576
e 194 544
e 194 542
e 194 502
e 195 233
e 195 236
e 195 557
e 195 560
e 195 305
e 195 307
e 196 234
e 196 235
e 196 558
e 196 559
e 196 306
e 196 308
e 197 361
e 197 541
e 197 363
e 197 620
e 197 617
e 197 457
e 197 544
e 197 317
e 197 459
e 197 320
e 198 460
e 198 618
e 198 362
e 198 619
e 198 364
e 198 542
e 198 543
e 198 458
e 198 318
e 198 319
e 199 257
e 199 481
e 199 260
e 199 581
e 199 584
e 199 484
e 200 258
e 200 259
e 200 582
e 200 583
e 200 482
e 200 483
e 201 569
e 201 571
e 201 629
e 201 631
e 202 570
e 202 572
e 202 630
e 202 632
e 203 241
e 203 593
e 203 596
e 203 244
e 204 242
e 204 243
e 204 595
e 204 594
e 205 325
e 205 328
e 205 392
e 205 305
e 205 629
e 205 308
e 205 309
e 205 312
e 205 632
e 205 389
e 205 573
e 205 576
e 206 326
e 206 327
e 206 631
e 206 630
e 206 306
e 206 307
e 206 310
e 206 311
e 206 391
e 206 574
e 206 575
e 206 390
e 207 460
e 207 361
e 207 633
e 207 364
e 207 636
e 207 457
e 207 313
e 207 316
e 208 635
e 208 634
e 208 458
e 208 459
e 208 362
e 208 314
e 208 315
e 208 363
e 209 321
e 209 393
e 209 324
e 209 396
e 210 322
e 210 323
e 210 395
e 210 394
e 211 649
e 211 652
e 211 237
e 211 240
e 212 650
e 212 651
e 212 238
e 212 239
e 213 425
e 213 428
e 214 426
e 214 427
e 215 561
e 215 564
e 215 605
e 215 608
e 216 562
e 216 563
e 216 606
e 216 607
e 217 225
e 217 449
e 217 228
e 217 516
e 217 452
e 217 513
e 217 409
e 217 412
e 218 226
e 218 451
e 218 450
e 218 227
e 218 515
e 218 514
e 218 410
e 218 411
e 219 485
e 219 488
e 219 297
e 219 300
e 219 657
e 219 660
e 219 281
e 219 284
e 220 486
e 220 487
e 220 298
e 220 299
e 220 658
e 220 659
e 220 282
e 220 283
e 221 417
e 221 420
e 221 357
e 221 360
e 221 265
e 221 268
e 221 529
e 221 532
e 221 533
e 221 536
e 221 377
e 221 380
e 222 418
e 222 419
e 222 358
e 222 359
e 222 266
e 222 267
e 222 530
e 222 531
e 222 534
e 222 535
e 222 378
e 222 379
e 223 545
e 223 548
e 223 337
e 223 340
e 223 569
e 223 572
e 224 546
e 224 547
e 224 338
e 224 339
e 224 570
e 224 571